25 350
  0     40.0     50.0       0.0     3390.0      0.0       0.0       0.0  
  1     52.0     75.0      71.0      711.0     90.0       2.0      10.0  
  2     45.0     70.0      20.0      660.0     90.0      26.0      30.0  
  3     62.0     69.0      927.0    1567.0     90.0       3.0      10.0  
  4     60.0     66.0     1021.0    1661.0     90.0       2.0      10.0  
  5     42.0     65.0      15.0      655.0     90.0       4.0      10.0  
  6     16.0     42.0      257.0     897.0     90.0      18.0      20.0  
  7     58.0     70.0      833.0    1473.0     90.0      14.0      20.0  
  8     34.0     60.0     2647.0    3287.0     90.0      15.0      20.0  
  9     28.0     70.0     2361.0    3001.0     90.0       7.0      10.0  
 10     35.0     66.0     2551.0    3191.0     90.0       6.0      10.0  
 11     35.0     69.0     2458.0    3098.0     90.0       8.0      10.0  
 12     25.0     85.0     1879.0    2519.0     90.0       9.0      20.0  
 13     22.0     75.0     2165.0    2805.0     90.0      21.0      30.0  
 14     22.0     85.0     1786.0    2426.0     90.0       3.0      10.0  
 15     20.0     80.0     1976.0    2616.0     90.0      37.0      40.0  
 16     20.0     85.0     1694.0    2334.0     90.0      29.0      40.0  
 17     18.0     75.0     2071.0    2711.0     90.0      17.0      20.0  
 18     15.0     75.0     1502.0    2142.0     90.0       5.0      20.0  
 19     15.0     80.0     1597.0    2237.0     90.0       2.0      10.0  
 20     30.0     50.0      10.0      650.0     90.0       4.0      10.0  
 21     30.0     56.0     2648.0    3288.0     90.0       4.0      20.0  
 22     28.0     52.0      12.0      652.0     90.0      11.0      20.0  
 23     14.0     66.0     1403.0    2043.0     90.0       1.0      10.0  
 24     25.0     50.0      15.0      655.0     90.0       0.0      10.0  
 25     22.0     66.0     2264.0    2904.0     90.0      27.0      40.0  
 26      8.0     62.0     1305.0    1945.0     90.0       1.0      10.0  
 27     23.0     52.0      17.0      657.0     90.0       9.0      10.0  
 28      4.0     55.0     1207.0    1847.0     90.0      10.0      20.0  
 29     20.0     50.0      158.0     798.0     90.0      10.0      10.0  
 30     20.0     55.0      63.0      703.0     90.0       5.0      10.0  
 31     10.0     35.0      541.0    1181.0     90.0       4.0      20.0  
 32     10.0     40.0      353.0     993.0     90.0      18.0      30.0  
 33      8.0     40.0      445.0    1085.0     90.0      25.0      40.0  
 34      8.0     45.0     1106.0    1746.0     90.0      13.0      20.0  
 35      5.0     35.0      636.0    1276.0     90.0       1.0      10.0  
 36      5.0     45.0     1013.0    1653.0     90.0       7.0      10.0  
 37      2.0     40.0      731.0    1371.0     90.0       4.0      20.0  
 38      0.0     40.0      823.0    1463.0     90.0      16.0      30.0  
 39      0.0     45.0      918.0    1558.0     90.0       5.0      20.0  
 40     36.0     18.0     1579.0    2219.0     90.0       8.0      10.0  
 41     35.0     32.0     2518.0    3158.0     90.0       9.0      10.0  
 42     33.0     32.0     2426.0    3066.0     90.0       4.0      20.0  
 43     33.0     35.0     2333.0    2973.0     90.0       8.0      10.0  
 44     32.0     20.0     1673.0    2313.0     90.0       7.0      10.0  
 45     30.0     30.0     1865.0    2505.0     90.0       4.0      10.0  
 46     34.0     25.0     1769.0    2409.0     90.0      25.0      30.0  
 47     30.0     35.0     2240.0    2880.0     90.0       3.0      10.0  
 48     36.0     40.0     2616.0    3256.0     90.0       3.0      10.0  
 49     48.0     20.0      727.0    1367.0     90.0       1.0      10.0  
 50     26.0     32.0     2052.0    2692.0     90.0       6.0      10.0  
